100 1043
304 1046 548 919 754 520 963 900 1028 506 394 1041 901 170 708 660 869 895 170 683 108 695 283 795 796 563 716 842 661 271 901 452 581 958 496 282 1097 987 558 706 837 570 944 1055 756 652 431 864 565 593 232 463 170 688 736 320 910 1082 271 361 498 893 900 896 340 972 717 447 844 868 209 885 548 841 653 287 260 439 159 508 551 420 1002 542 830 618 734 227 831 123 147 475 458 613 626 101 759 693 768 786 
204 946 448 819 654 420 863 800 928 406 294 941 801 70 608 560 769 795 70 583 8 595 183 695 696 463 616 742 561 171 801 352 481 858 396 182 997 887 458 606 737 470 844 955 656 552 331 764 465 493 132 363 70 588 636 220 810 982 171 261 398 793 800 796 240 872 617 347 744 768 109 785 448 741 553 187 160 339 59 408 451 320 902 442 730 518 634 127 731 23 47 375 358 513 526 1 659 593 668 686 
